p edge 100 990
e 1 7
e 1 9
e 1 15
e 1 17
e 1 19
e 1 22
e 1 27
e 1 36
e 1 37
e 1 42
e 1 46
e 1 52
e 1 53
e 1 57
e 1 58
e 1 60
e 1 63
e 1 65
e 1 68
e 1 69
e 1 75
e 1 85
e 2 6
e 2 7
e 2 9
e 2 14
e 2 21
e 2 37
e 2 45
e 2 47
e 2 64
e 2 68
e 2 72
e 2 84
e 2 86
e 2 89
e 2 92
e 2 95
e 3 4
e 3 10
e 3 11
e 3 17
e 3 23
e 3 28
e 3 32
e 3 34
e 3 38
e 3 40
e 3 51
e 3 61
e 3 64
e 3 66
e 3 77
e 3 79
e 3 80
e 3 94
e 3 95
e 4 6
e 4 7
e 4 11
e 4 14
e 4 15
e 4 19
e 4 27
e 4 34
e 4 42
e 4 44
e 4 45
e 4 49
e 4 51
e 4 63
e 4 74
e 4 82
e 4 84
e 4 87
e 4 90
e 4 93
e 4 95
e 4 98
e 4 99
e 5 8
e 5 9
e 5 11
e 5 15
e 5 37
e 5 40
e 5 43
e 5 44
e 5 46
e 5 70
e 5 71
e 5 72
e 5 76
e 5 77
e 5 83
e 5 85
e 5 88
e 5 100
e 6 8
e 6 15
e 6 17
e 6 18
e 6 19
e 6 30
e 6 37
e 6 39
e 6 48
e 6 53
e 6 54
e 6 59
e 6 64
e 6 79
e 6 82
e 6 91
e 6 97
e 7 10
e 7 17
e 7 21
e 7 23
e 7 24
e 7 26
e 7 27
e 7 32
e 7 34
e 7 38
e 7 43
e 7 48
e 7 50
e 7 52
e 7 56
e 7 63
e 7 66
e 7 68
e 7 78
e 7 83
e 7 90
e 7 91
e 7 92
e 7 93
e 7 94
e 8 11
e 8 14
e 8 15
e 8 25
e 8 38
e 8 50
e 8 60
e 8 68
e 8 81
e 8 88
e 8 89
e 8 91
e 8 95
e 8 99
e 9 20
e 9 21
e 9 31
e 9 33
e 9 36
e 9 47
e 9 57
e 9 60
e 9 64
e 9 67
e 9 69
e 9 74
e 9 79
e 9 82
e 9 99
e 10 12
e 10 21
e 10 24
e 10 27
e 10 40
e 10 41
e 10 51
e 10 53
e 10 54
e 10 57
e 10 64
e 10 73
e 10 76
e 10 77
e 10 88
e 11 24
e 11 28
e 11 31
e 11 32
e 11 42
e 11 46
e 11 55
e 11 60
e 11 74
e 11 78
e 11 80
e 11 82
e 11 85
e 11 87
e 11 88
e 11 91
e 11 92
e 12 13
e 12 23
e 12 24
e 12 27
e 12 28
e 12 31
e 12 44
e 12 45
e 12 46
e 12 51
e 12 61
e 12 70
e 12 77
e 12 81
e 12 84
e 12 86
e 12 89
e 12 90
e 12 95
e 12 100
e 13 20
e 13 26
e 13 31
e 13 33
e 13 36
e 13 37
e 13 40
e 13 41
e 13 42
e 13 52
e 13 53
e 13 59
e 13 68
e 13 70
e 13 71
e 13 75
e 13 78
e 13 89
e 13 93
e 14 16
e 14 21
e 14 24
e 14 25
e 14 32
e 14 33
e 14 35
e 14 38
e 14 40
e 14 43
e 14 45
e 14 46
e 14 48
e 14 49
e 14 55
e 14 56
e 14 64
e 14 66
e 14 70
e 14 72
e 14 73
e 14 86
e 14 89
e 14 92
e 14 95
e 14 100
e 15 26
e 15 27
e 15 32
e 15 34
e 15 44
e 15 48
e 15 54
e 15 55
e 15 58
e 15 63
e 15 71
e 15 84
e 15 89
e 15 91
e 15 96
e 15 100
e 16 31
e 16 33
e 16 35
e 16 36
e 16 45
e 16 48
e 16 49
e 16 53
e 16 68
e 16 71
e 16 74
e 16 75
e 16 76
e 16 88
e 16 91
e 16 92
e 16 97
e 17 31
e 17 32
e 17 33
e 17 39
e 17 45
e 17 47
e 17 50
e 17 53
e 17 56
e 17 68
e 17 69
e 17 85
e 17 96
e 17 98
e 18 30
e 18 37
e 18 51
e 18 58
e 18 59
e 18 63
e 18 73
e 18 77
e 18 78
e 18 82
e 18 85
e 18 90
e 18 97
e 19 23
e 19 24
e 19 30
e 19 32
e 19 38
e 19 39
e 19 43
e 19 46
e 19 62
e 19 64
e 19 69
e 19 70
e 19 71
e 19 73
e 19 79
e 19 97
e 20 21
e 20 27
e 20 28
e 20 29
e 20 36
e 20 39
e 20 42
e 20 43
e 20 49
e 20 55
e 20 69
e 20 72
e 20 81
e 20 84
e 20 89
e 20 91
e 20 95
e 21 24
e 21 25
e 21 31
e 21 41
e 21 43
e 21 44
e 21 46
e 21 48
e 21 52
e 21 53
e 21 54
e 21 63
e 21 67
e 21 72
e 21 80
e 21 88
e 22 28
e 22 29
e 22 36
e 22 43
e 22 45
e 22 51
e 22 66
e 22 79
e 22 86
e 22 88
e 22 92
e 22 94
e 22 96
e 22 97
e 23 24
e 23 25
e 23 32
e 23 49
e 23 50
e 23 51
e 23 53
e 23 64
e 23 65
e 23 67
e 23 68
e 23 82
e 23 87
e 23 93
e 24 29
e 24 35
e 24 36
e 24 37
e 24 47
e 24 49
e 24 50
e 24 55
e 24 61
e 24 62
e 24 66
e 24 76
e 24 91
e 24 92
e 24 94
e 24 97
e 24 98
e 25 26
e 25 36
e 25 44
e 25 45
e 25 52
e 25 53
e 25 55
e 25 65
e 25 66
e 25 72
e 25 78
e 25 81
e 25 86
e 25 88
e 25 94
e 25 96
e 25 100
e 26 27
e 26 31
e 26 45
e 26 60
e 26 61
e 26 62
e 26 69
e 26 71
e 26 82
e 26 94
e 26 100
e 27 33
e 27 36
e 27 37
e 27 38
e 27 40
e 27 42
e 27 46
e 27 49
e 27 54
e 27 80
e 27 83
e 27 85
e 27 98
e 27 99
e 27 100
e 28 31
e 28 33
e 28 36
e 28 43
e 28 61
e 28 65
e 28 81
e 28 89
e 28 97
e 29 35
e 29 41
e 29 48
e 29 53
e 29 54
e 29 55
e 29 59
e 29 61
e 29 62
e 29 66
e 29 69
e 29 71
e 29 72
e 29 77
e 29 80
e 29 82
e 29 90
e 29 91
e 29 97
e 29 98
e 30 32
e 30 48
e 30 57
e 30 58
e 30 63
e 30 65
e 30 66
e 30 71
e 30 82
e 30 95
e 30 99
e 31 34
e 31 35
e 31 42
e 31 56
e 31 59
e 31 60
e 31 62
e 31 63
e 31 64
e 31 65
e 31 74
e 31 75
e 31 77
e 31 84
e 31 85
e 31 86
e 31 89
e 31 90
e 31 95
e 31 97
e 31 99
e 32 39
e 32 47
e 32 49
e 32 58
e 32 59
e 32 62
e 32 65
e 32 67
e 32 71
e 32 82
e 32 89
e 32 93
e 32 97
e 33 49
e 33 50
e 33 54
e 33 60
e 33 71
e 33 82
e 33 87
e 33 88
e 33 94
e 33 96
e 33 97
e 33 99
e 34 35
e 34 37
e 34 41
e 34 42
e 34 44
e 34 45
e 34 50
e 34 52
e 34 60
e 34 61
e 34 66
e 34 70
e 34 77
e 34 84
e 34 85
e 34 86
e 34 97
e 34 100
e 35 38
e 35 39
e 35 44
e 35 47
e 35 60
e 35 64
e 35 74
e 35 75
e 35 76
e 35 77
e 35 81
e 35 82
e 35 88
e 35 90
e 35 91
e 35 92
e 35 94
e 35 97
e 35 98
e 36 41
e 36 46
e 36 54
e 36 70
e 36 81
e 36 86
e 36 92
e 36 97
e 37 43
e 37 44
e 37 49
e 37 50
e 37 68
e 37 72
e 37 83
e 37 90
e 37 99
e 38 39
e 38 40
e 38 44
e 38 47
e 38 50
e 38 54
e 38 56
e 38 59
e 38 61
e 38 73
e 38 75
e 38 90
e 38 96
e 38 98
e 38 100
e 39 41
e 39 43
e 39 45
e 39 56
e 39 59
e 39 82
e 40 42
e 40 45
e 40 48
e 40 54
e 40 57
e 40 60
e 40 68
e 40 71
e 40 74
e 40 80
e 40 84
e 40 85
e 40 86
e 40 88
e 40 90
e 40 94
e 41 51
e 41 57
e 41 69
e 41 76
e 41 80
e 41 85
e 41 93
e 41 96
e 41 97
e 41 100
e 42 44
e 42 47
e 42 48
e 42 51
e 42 70
e 42 71
e 43 45
e 43 51
e 43 63
e 43 75
e 43 77
e 43 80
e 43 85
e 43 87
e 43 92
e 43 93
e 43 96
e 43 98
e 44 46
e 44 60
e 44 63
e 44 65
e 44 68
e 44 70
e 44 84
e 44 86
e 44 97
e 44 99
e 45 46
e 45 47
e 45 53
e 45 60
e 45 61
e 45 63
e 45 70
e 45 87
e 45 89
e 45 90
e 45 96
e 46 48
e 46 71
e 46 93
e 46 94
e 46 98
e 47 49
e 47 50
e 47 53
e 47 57
e 47 61
e 47 65
e 47 66
e 47 67
e 47 69
e 47 72
e 47 86
e 47 90
e 47 96
e 48 53
e 48 54
e 48 55
e 48 59
e 48 82
e 49 51
e 49 52
e 49 57
e 49 61
e 49 62
e 49 63
e 49 69
e 49 80
e 49 81
e 49 82
e 49 86
e 49 87
e 49 99
e 50 56
e 50 60
e 50 63
e 50 64
e 50 66
e 50 73
e 50 74
e 50 83
e 50 84
e 50 86
e 50 89
e 50 90
e 50 91
e 50 97
e 51 56
e 51 63
e 51 76
e 51 81
e 51 87
e 51 93
e 51 96
e 51 100
e 52 54
e 52 58
e 52 66
e 52 74
e 52 83
e 52 90
e 52 92
e 52 94
e 53 54
e 53 55
e 53 58
e 53 60
e 53 67
e 53 78
e 53 82
e 53 85
e 53 90
e 53 92
e 53 93
e 53 96
e 54 55
e 54 59
e 54 64
e 54 73
e 54 84
e 54 86
e 54 87
e 54 91
e 54 93
e 54 94
e 54 96
e 54 98
e 54 100
e 55 56
e 55 66
e 55 69
e 55 70
e 55 80
e 55 83
e 55 84
e 55 86
e 55 88
e 55 90
e 55 91
e 55 94
e 55 99
e 56 58
e 56 61
e 56 62
e 56 66
e 56 68
e 56 69
e 56 72
e 56 74
e 56 77
e 56 78
e 56 81
e 56 86
e 56 89
e 56 93
e 56 95
e 56 97
e 57 69
e 57 70
e 57 80
e 57 81
e 57 87
e 57 88
e 57 96
e 57 97
e 58 59
e 58 65
e 58 69
e 58 71
e 58 73
e 58 76
e 58 77
e 58 81
e 58 87
e 58 95
e 59 60
e 59 65
e 59 66
e 59 69
e 59 72
e 59 85
e 59 89
e 59 90
e 59 92
e 59 93
e 59 99
e 59 100
e 60 71
e 60 73
e 60 76
e 60 78
e 60 79
e 60 97
e 60 100
e 61 67
e 61 69
e 61 81
e 61 87
e 61 89
e 61 91
e 61 92
e 61 95
e 62 65
e 62 68
e 62 69
e 62 71
e 62 86
e 63 71
e 63 72
e 63 74
e 63 84
e 63 87
e 64 75
e 64 79
e 64 88
e 65 71
e 65 73
e 65 77
e 65 84
e 65 94
e 65 97
e 65 98
e 65 99
e 66 76
e 66 78
e 66 82
e 66 92
e 66 93
e 66 96
e 67 71
e 67 73
e 67 74
e 67 83
e 67 85
e 67 88
e 67 89
e 68 70
e 68 80
e 68 81
e 68 83
e 68 89
e 68 90
e 68 93
e 68 96
e 69 75
e 69 78
e 69 79
e 69 88
e 69 89
e 69 91
e 69 92
e 69 95
e 69 96
e 69 97
e 70 71
e 70 81
e 70 87
e 70 97
e 70 98
e 71 73
e 71 75
e 71 79
e 71 89
e 72 75
e 72 80
e 72 84
e 72 87
e 72 88
e 72 95
e 73 80
e 73 84
e 73 92
e 73 94
e 73 95
e 74 83
e 74 86
e 74 95
e 74 100
e 75 76
e 75 85
e 75 86
e 75 89
e 75 90
e 75 100
e 76 86
e 76 92
e 76 100
e 78 86
e 78 88
e 78 90
e 78 94
e 79 81
e 79 82
e 79 94
e 79 97
e 79 98
e 80 82
e 80 84
e 80 99
e 81 87
e 82 88
e 82 93
e 82 95
e 82 96
e 82 100
e 83 84
e 83 100
e 84 85
e 84 93
e 84 94
e 84 95
e 84 99
e 86 88
e 86 91
e 86 95
e 86 97
e 86 100
e 87 90
e 87 97
e 88 93
e 88 95
e 88 97
e 88 99
e 88 100
e 89 90
e 89 92
e 89 98
e 89 99
e 90 92
e 90 94
e 91 94
e 91 97
e 92 95
e 92 97
e 93 96
e 94 98
e 96 97
e 96 99
